162
1000
939
319
746
482
1
680
212
288
253
91
55
59
453
269
911
300
647
911
509
803
385
213
254
111
775
56
646
791
386
144
2
269
392
163
140
163
564
72
181
17
292
785
360
225
303
67
659
127
515
114
864
180
135
928
698
320
61
9
7
420
823
232
275
518
174
261
221
588
196
70
530
695
467
282
650
886
302
136
110
89
243
206
150
177
118
362
459
400
464
320
704
601
176
485
341
506
38
170
358
982
438
51
567
155
220
541
710
61
546
193
134
123
38
197
187
168
442
976
89
350
944
463
168
612
433
622
292
998
75
832
873
289
34
151
256
256
494
412
296
58
261
794
28
261
739
18
614
24
182
244
983
337
562
712
586
708
215
175
36
213
397
681
